language ESSENCE' 1.0
letting lastdx=102
letting cage be [
[9,12,11,0,0, 0,0, 0,0, 0,0],
[11,9,13,0,0, 0,0, 0,0, 0,0],
[9,2,2,0,0, 0,0, 0,0, 0,0],
[18,14,4,14,5,15,5,0,0, 0,0],
[17,3,6,3,5,4,5,0,0, 0,0],
[11,14,14,0,0, 0,0, 0,0, 0,0],
[7,6,14,0,0, 0,0, 0,0, 0,0],
[33,8,5,9,5,9,6,8,6,8,7],
[9,15,7,0,0, 0,0, 0,0, 0,0],
[30,6,15,5,15,4,15,0,0, 0,0],
[35,15,3,16,3,16,2,16,1,0,0],
[54,16,12,16,13,15,13,15,12,15,11],
[6,14,2,0,0, 0,0, 0,0, 0,0],
[13,11,15,0,0, 0,0, 0,0, 0,0],
[28,11,13,11,14,10,14,0,0, 0,0],
[51,11,5,11,4,10,4,10,5,0,0],
[10,12,16,0,0, 0,0, 0,0, 0,0],
[22,3,15,3,16,0,0, 0,0, 0,0],
[1,10,9,0,0, 0,0, 0,0, 0,0],
[9,13,1,0,0, 0,0, 0,0, 0,0],
[8,2,7,0,0, 0,0, 0,0, 0,0],
[12,14,13,0,0, 0,0, 0,0, 0,0],
[43,12,4,12,3,13,3,14,3,13,2],
[12,3,10,4,10,4,11,0,0, 0,0],
[16,13,9,0,0, 0,0, 0,0, 0,0],
[12,16,6,0,0, 0,0, 0,0, 0,0],
[34,13,6,12,6,12,7,0,0, 0,0],
[14,12,10,0,0, 0,0, 0,0, 0,0],
[31,5,16,4,16,6,16,0,0, 0,0],
[24,7,7,7,6,6,6,0,0, 0,0],
[44,14,9,14,10,14,11,13,11,13,10],
[51,10,3,11,3,11,2,12,2,12,1],
[13,4,8,4,7,0,0, 0,0, 0,0],
[12,10,8,9,8,0,0, 0,0, 0,0],
[23,1,10,1,11,1,12,0,0, 0,0],
[11,3,9,0,0, 0,0, 0,0, 0,0],
[26,12,14,12,13,13,13,0,0, 0,0],
[10,16,14,0,0, 0,0, 0,0, 0,0],
[3,13,16,0,0, 0,0, 0,0, 0,0],
[15,4,13,0,0, 0,0, 0,0, 0,0],
[15,8,3,0,0, 0,0, 0,0, 0,0],
[13,9,12,0,0, 0,0, 0,0, 0,0],
[7,2,4,0,0, 0,0, 0,0, 0,0],
[5,4,4,0,0, 0,0, 0,0, 0,0],
[9,16,11,16,10,0,0, 0,0, 0,0],
[3,2,6,0,0, 0,0, 0,0, 0,0],
[20,13,15,12,15,13,14,0,0, 0,0],
[18,5,9,4,9,0,0, 0,0, 0,0],
[14,4,6,0,0, 0,0, 0,0, 0,0],
[18,8,14,9,14,9,15,0,0, 0,0],
[24,10,12,10,13,10,11,9,11,0,0],
[27,11,6,11,7,11,8,12,8,13,8],
[16,7,10,7,11,0,0, 0,0, 0,0],
[12,1,1,0,0, 0,0, 0,0, 0,0],
[2,7,9,0,0, 0,0, 0,0, 0,0],
[16,6,12,6,13,5,13,0,0, 0,0],
[15,3,4,0,0, 0,0, 0,0, 0,0],
[27,8,12,8,11,0,0, 0,0, 0,0],
[28,3,8,3,7,0,0, 0,0, 0,0],
[12,10,10,0,0, 0,0, 0,0, 0,0],
[42,1,2,1,3,2,3,3,3,4,3],
[30,16,16,16,15,15,15,15,14,0,0],
[14,10,1,11,1,0,0, 0,0, 0,0],
[58,3,13,2,13,2,12,2,11,3,11],
[37,7,16,8,16,8,15,9,16,0,0],
[32,6,1,5,1,5,2,5,3,0,0],
[13,6,4,0,0, 0,0, 0,0, 0,0],
[13,1,13,0,0, 0,0, 0,0, 0,0],
[41,6,11,6,10,6,9,6,8,0,0],
[9,8,10,0,0, 0,0, 0,0, 0,0],
[30,1,16,2,16,2,15,0,0, 0,0],
[13,16,9,0,0, 0,0, 0,0, 0,0],
[30,4,1,4,2,3,2,3,1,2,1],
[7,1,14,1,15,0,0, 0,0, 0,0],
[2,2,14,0,0, 0,0, 0,0, 0,0],
[35,14,1,15,1,15,2,0,0, 0,0],
[16,1,4,0,0, 0,0, 0,0, 0,0],
[14,1,5,2,5,0,0, 0,0, 0,0],
[19,1,6,1,7,0,0, 0,0, 0,0],
[39,1,8,1,9,2,9,2,8,2,10],
[19,3,14,4,14,5,14,0,0, 0,0],
[22,5,4,5,5,0,0, 0,0, 0,0],
[38,5,6,5,7,5,8,6,7,0,0],
[36,6,2,6,3,7,3,7,4,0,0],
[21,6,5,7,5,0,0, 0,0, 0,0],
[1,7,1,0,0, 0,0, 0,0, 0,0],
[10,7,2,0,0, 0,0, 0,0, 0,0],
[43,7,8,8,8,8,9,9,9,9,10],
[22,8,1,9,1,0,0, 0,0, 0,0],
[13,8,4,9,4,0,0, 0,0, 0,0],
[34,9,7,10,7,10,6,0,0, 0,0],
[27,10,15,10,16,11,16,0,0, 0,0],
[16,11,9,12,9,11,10,0,0, 0,0],
[37,11,11,11,12,12,12,13,12,14,12],
[4,12,5,0,0, 0,0, 0,0, 0,0],
[12,13,4,13,5,0,0, 0,0, 0,0],
[24,13,7,14,7,14,8,15,8,0,0],
[26,14,6,15,6,0,0, 0,0, 0,0],
[15,14,15,0,0, 0,0, 0,0, 0,0],
[5,14,16,15,16,0,0, 0,0, 0,0],
[15,15,4,16,4,16,5,0,0, 0,0],
[19,15,9,15,10,0,0, 0,0, 0,0],
[17,16,7,16,8,0,0, 0,0, 0,0]
]
